(declare-fun cmp225.not.i.i_34_101 () (_ BitVec 1))
(declare-fun narrow_34_103 () (_ BitVec 1))
(declare-fun cmp221.i.i_34_100 () (_ BitVec 1))
(declare-fun i147.i.i_34_99 () (_ BitVec 64))
(declare-fun i137.i.i_34_96 () (_ BitVec 64))
(declare-fun i145.i.i_34_98 () (_ BitVec 64))
(declare-fun i139.i.i_34_97 () (_ BitVec 64))
(declare-fun src_reg_34_23 () (_ BitVec 64))
(declare-fun src_reg_34_22 () (_ BitVec 64))
(declare-fun dst_reg_34_5 () (_ BitVec 64))
(declare-fun dst_reg_34_4 () (_ BitVec 64))
(declare-fun i30.i32_34_95 () (_ BitVec 32))
(declare-fun src_reg_34_29 () (_ BitVec 32))
(declare-fun i29.i29_34_94 () (_ BitVec 32))
(declare-fun src_reg_34_28 () (_ BitVec 32))
(declare-fun i28.i26_34_93 () (_ BitVec 32))
(declare-fun src_reg_34_27 () (_ BitVec 32))
(declare-fun i27.i23_34_92 () (_ BitVec 32))
(declare-fun src_reg_34_26 () (_ BitVec 32))
(declare-fun i26.i20_34_91 () (_ BitVec 64))
(declare-fun src_reg_34_25 () (_ BitVec 64))
(declare-fun i25.i17_34_90 () (_ BitVec 64))
(declare-fun src_reg_34_24 () (_ BitVec 64))
(declare-fun i24.i14_34_89 () (_ BitVec 64))
(declare-fun i23.i11_34_88 () (_ BitVec 64))
(declare-fun i22.i8_34_87 () (_ BitVec 64))
(declare-fun src_reg_34_21 () (_ BitVec 64))
(declare-fun i21.i5_34_86 () (_ BitVec 64))
(declare-fun src_reg_34_20 () (_ BitVec 64))
(declare-fun i.i2_34_85 () (_ BitVec 32))
(declare-fun i30.i_34_84 () (_ BitVec 32))
(declare-fun dst_reg_34_11 () (_ BitVec 32))
(declare-fun i29.i_34_83 () (_ BitVec 32))
(declare-fun dst_reg_34_10 () (_ BitVec 32))
(declare-fun i28.i_34_82 () (_ BitVec 32))
(declare-fun dst_reg_34_9 () (_ BitVec 32))
(declare-fun i27.i_34_81 () (_ BitVec 32))
(declare-fun dst_reg_34_8 () (_ BitVec 32))
(declare-fun i26.i_34_80 () (_ BitVec 64))
(declare-fun dst_reg_34_7 () (_ BitVec 64))
(declare-fun i25.i_34_79 () (_ BitVec 64))
(declare-fun dst_reg_34_6 () (_ BitVec 64))
(declare-fun i24.i_34_78 () (_ BitVec 64))
(declare-fun i23.i_34_77 () (_ BitVec 64))
(declare-fun i22.i_34_76 () (_ BitVec 64))
(declare-fun dst_reg_34_3 () (_ BitVec 64))
(declare-fun i21.i_34_75 () (_ BitVec 64))
(declare-fun dst_reg_34_2 () (_ BitVec 64))
(declare-fun i.i_34_74 () (_ BitVec 32))
(declare-fun other_branch_src_reg_34_71 () (_ BitVec 8))
(declare-fun other_branch_src_reg_34_70 () (_ BitVec 32))
(declare-fun other_branch_src_reg_34_69 () (_ BitVec 32))
(declare-fun other_branch_src_reg_34_68 () (_ BitVec 32))
(declare-fun other_branch_src_reg_34_67 () (_ BitVec 32))
(declare-fun other_branch_src_reg_34_66 () (_ BitVec 32))
(declare-fun other_branch_src_reg_34_65 () (_ BitVec 32))
(declare-fun other_branch_src_reg_34_64 () (_ BitVec 32))
(declare-fun other_branch_src_reg_34_63 () (_ BitVec 32))
(declare-fun other_branch_src_reg_34_62 () (_ BitVec 32))
(declare-fun other_branch_src_reg_34_61 () (_ BitVec 64))
(declare-fun other_branch_src_reg_34_60 () (_ BitVec 64))
(declare-fun other_branch_src_reg_34_59 () (_ BitVec 64))
(declare-fun other_branch_src_reg_34_58 () (_ BitVec 64))
(declare-fun other_branch_src_reg_34_57 () (_ BitVec 64))
(declare-fun other_branch_src_reg_34_56 () (_ BitVec 64))
(declare-fun other_branch_src_reg_34_55 () (_ BitVec 32))
(declare-fun other_branch_src_reg_34_54 () (_ BitVec 32))
(declare-fun other_branch_dst_reg_34_53 () (_ BitVec 8))
(declare-fun other_branch_dst_reg_34_52 () (_ BitVec 32))
(declare-fun other_branch_dst_reg_34_51 () (_ BitVec 32))
(declare-fun other_branch_dst_reg_34_50 () (_ BitVec 32))
(declare-fun other_branch_dst_reg_34_49 () (_ BitVec 32))
(declare-fun other_branch_dst_reg_34_48 () (_ BitVec 32))
(declare-fun other_branch_dst_reg_34_47 () (_ BitVec 32))
(declare-fun other_branch_dst_reg_34_46 () (_ BitVec 32))
(declare-fun other_branch_dst_reg_34_45 () (_ BitVec 32))
(declare-fun other_branch_dst_reg_34_44 () (_ BitVec 32))
(declare-fun other_branch_dst_reg_34_43 () (_ BitVec 64))
(declare-fun other_branch_dst_reg_34_42 () (_ BitVec 64))
(declare-fun other_branch_dst_reg_34_41 () (_ BitVec 64))
(declare-fun other_branch_dst_reg_34_40 () (_ BitVec 64))
(declare-fun other_branch_dst_reg_34_39 () (_ BitVec 64))
(declare-fun other_branch_dst_reg_34_38 () (_ BitVec 64))
(declare-fun other_branch_dst_reg_34_37 () (_ BitVec 32))
(declare-fun other_branch_dst_reg_34_36 () (_ BitVec 32))
(declare-fun src_reg_34_35 () (_ BitVec 8))
(declare-fun src_reg_34_34 () (_ BitVec 32))
(declare-fun src_reg_34_33 () (_ BitVec 32))
(declare-fun src_reg_34_32 () (_ BitVec 32))
(declare-fun src_reg_34_31 () (_ BitVec 32))
(declare-fun src_reg_34_30 () (_ BitVec 32))
(declare-fun src_reg_34_19 () (_ BitVec 32))
(declare-fun src_reg_34_18 () (_ BitVec 32))
(declare-fun dst_reg_34_17 () (_ BitVec 8))
(declare-fun dst_reg_34_16 () (_ BitVec 32))
(declare-fun dst_reg_34_15 () (_ BitVec 32))
(declare-fun dst_reg_34_14 () (_ BitVec 32))
(declare-fun dst_reg_34_13 () (_ BitVec 32))
(declare-fun dst_reg_34_12 () (_ BitVec 32))
(declare-fun dst_reg_34_1 () (_ BitVec 32))
(declare-fun dst_reg_34_0 () (_ BitVec 32))
(declare-fun cmp.not.i_34_106 () (_ BitVec 1))
(declare-fun i.i35_34_104 () (_ BitVec 32))
(declare-fun cmp2.not.i_34_109 () (_ BitVec 1))
(declare-fun i1.i_34_107 () (_ BitVec 32))
(declare-fun i377.i582.i_34_124 () (_ BitVec 64))
(declare-fun cond441.i584.i_34_126 () (_ BitVec 64))
(declare-fun add433.i580.i_34_123 () (_ BitVec 64))
(declare-fun cmp436.i583.i_34_125 () (_ BitVec 1))
(declare-fun i376.i579.i_34_121 () (_ BitVec 64))
(declare-fun sub423.i575.i_34_118 () (_ BitVec 64))
(declare-fun cond430.i577.i_34_120 () (_ BitVec 64))
(declare-fun i374.i572.i_34_115 () (_ BitVec 64))
(declare-fun cmp425.i576.i_34_119 () (_ BitVec 1))
(declare-fun i375.i574.i_34_116 () (_ BitVec 64))
(declare-fun i369.i.i_34_112 () (_ BitVec 64))
(declare-fun cond392.i.i_34_114 () (_ BitVec 64))
(declare-fun cmp387.i.i_34_113 () (_ BitVec 1))
(declare-fun cond382.i.i_34_111 () (_ BitVec 64))
(declare-fun cmp377.i.i_34_110 () (_ BitVec 1))
(declare-fun other_branch_src_reg_34_270 () (_ BitVec 8))
(declare-fun other_branch_src_reg_34_198 () (_ BitVec 8))
(declare-fun other_branch_src_reg_34_269 () (_ BitVec 32))
(declare-fun other_branch_src_reg_34_197 () (_ BitVec 32))
(declare-fun other_branch_src_reg_34_268 () (_ BitVec 32))
(declare-fun other_branch_src_reg_34_196 () (_ BitVec 32))
(declare-fun other_branch_src_reg_34_267 () (_ BitVec 32))
(declare-fun other_branch_src_reg_34_195 () (_ BitVec 32))
(declare-fun other_branch_src_reg_34_266 () (_ BitVec 32))
(declare-fun other_branch_src_reg_34_194 () (_ BitVec 32))
(declare-fun other_branch_src_reg_34_265 () (_ BitVec 32))
(declare-fun other_branch_src_reg_34_193 () (_ BitVec 32))
(declare-fun other_branch_src_reg_34_264 () (_ BitVec 32))
(declare-fun other_branch_src_reg_34_192 () (_ BitVec 32))
(declare-fun other_branch_src_reg_34_263 () (_ BitVec 32))
(declare-fun other_branch_src_reg_34_191 () (_ BitVec 32))
(declare-fun other_branch_src_reg_34_262 () (_ BitVec 32))
(declare-fun other_branch_src_reg_34_190 () (_ BitVec 32))
(declare-fun other_branch_src_reg_34_261 () (_ BitVec 32))
(declare-fun other_branch_src_reg_34_189 () (_ BitVec 32))
(declare-fun other_branch_src_reg_34_260 () (_ BitVec 64))
(declare-fun other_branch_src_reg_34_188 () (_ BitVec 64))
(declare-fun other_branch_src_reg_34_259 () (_ BitVec 64))
(declare-fun other_branch_src_reg_34_187 () (_ BitVec 64))
(declare-fun other_branch_src_reg_34_258 () (_ BitVec 64))
(declare-fun other_branch_src_reg_34_186 () (_ BitVec 64))
(declare-fun other_branch_src_reg_34_257 () (_ BitVec 64))
(declare-fun other_branch_src_reg_34_185 () (_ BitVec 64))
(declare-fun other_branch_src_reg_34_256 () (_ BitVec 64))
(declare-fun other_branch_src_reg_34_184 () (_ BitVec 64))
(declare-fun other_branch_src_reg_34_255 () (_ BitVec 64))
(declare-fun other_branch_src_reg_34_183 () (_ BitVec 64))
(declare-fun other_branch_src_reg_34_254 () (_ BitVec 32))
(declare-fun other_branch_src_reg_34_182 () (_ BitVec 32))
(declare-fun other_branch_src_reg_34_253 () (_ BitVec 32))
(declare-fun other_branch_src_reg_34_181 () (_ BitVec 32))
(declare-fun other_branch_dst_reg_34_252 () (_ BitVec 8))
(declare-fun other_branch_dst_reg_34_180 () (_ BitVec 8))
(declare-fun other_branch_dst_reg_34_251 () (_ BitVec 32))
(declare-fun other_branch_dst_reg_34_179 () (_ BitVec 32))
(declare-fun other_branch_dst_reg_34_250 () (_ BitVec 32))
(declare-fun other_branch_dst_reg_34_178 () (_ BitVec 32))
(declare-fun other_branch_dst_reg_34_249 () (_ BitVec 32))
(declare-fun other_branch_dst_reg_34_177 () (_ BitVec 32))
(declare-fun other_branch_dst_reg_34_248 () (_ BitVec 32))
(declare-fun other_branch_dst_reg_34_176 () (_ BitVec 32))
(declare-fun other_branch_dst_reg_34_247 () (_ BitVec 32))
(declare-fun other_branch_dst_reg_34_175 () (_ BitVec 32))
(declare-fun other_branch_dst_reg_34_246 () (_ BitVec 32))
(declare-fun other_branch_dst_reg_34_174 () (_ BitVec 32))
(declare-fun other_branch_dst_reg_34_245 () (_ BitVec 32))
(declare-fun other_branch_dst_reg_34_173 () (_ BitVec 32))
(declare-fun other_branch_dst_reg_34_244 () (_ BitVec 32))
(declare-fun other_branch_dst_reg_34_172 () (_ BitVec 32))
(declare-fun other_branch_dst_reg_34_243 () (_ BitVec 32))
(declare-fun other_branch_dst_reg_34_171 () (_ BitVec 32))
(declare-fun other_branch_dst_reg_34_242 () (_ BitVec 64))
(declare-fun other_branch_dst_reg_34_170 () (_ BitVec 64))
(declare-fun other_branch_dst_reg_34_241 () (_ BitVec 64))
(declare-fun other_branch_dst_reg_34_169 () (_ BitVec 64))
(declare-fun other_branch_dst_reg_34_240 () (_ BitVec 64))
(declare-fun other_branch_dst_reg_34_168 () (_ BitVec 64))
(declare-fun other_branch_dst_reg_34_239 () (_ BitVec 64))
(declare-fun other_branch_dst_reg_34_167 () (_ BitVec 64))
(declare-fun other_branch_dst_reg_34_238 () (_ BitVec 64))
(declare-fun other_branch_dst_reg_34_166 () (_ BitVec 64))
(declare-fun other_branch_dst_reg_34_237 () (_ BitVec 64))
(declare-fun other_branch_dst_reg_34_165 () (_ BitVec 64))
(declare-fun other_branch_dst_reg_34_236 () (_ BitVec 32))
(declare-fun other_branch_dst_reg_34_164 () (_ BitVec 32))
(declare-fun other_branch_dst_reg_34_235 () (_ BitVec 32))
(declare-fun other_branch_dst_reg_34_163 () (_ BitVec 32))
(declare-fun src_reg_34_234 () (_ BitVec 8))
(declare-fun src_reg_34_162 () (_ BitVec 8))
(declare-fun src_reg_34_233 () (_ BitVec 32))
(declare-fun src_reg_34_161 () (_ BitVec 32))
(declare-fun src_reg_34_232 () (_ BitVec 32))
(declare-fun src_reg_34_160 () (_ BitVec 32))
(declare-fun src_reg_34_231 () (_ BitVec 32))
(declare-fun src_reg_34_159 () (_ BitVec 32))
(declare-fun src_reg_34_230 () (_ BitVec 32))
(declare-fun src_reg_34_158 () (_ BitVec 32))
(declare-fun src_reg_34_229 () (_ BitVec 32))
(declare-fun src_reg_34_157 () (_ BitVec 32))
(declare-fun src_reg_34_228 () (_ BitVec 32))
(declare-fun src_reg_34_156 () (_ BitVec 32))
(declare-fun src_reg_34_227 () (_ BitVec 32))
(declare-fun src_reg_34_155 () (_ BitVec 32))
(declare-fun src_reg_34_226 () (_ BitVec 32))
(declare-fun src_reg_34_154 () (_ BitVec 32))
(declare-fun src_reg_34_225 () (_ BitVec 32))
(declare-fun src_reg_34_153 () (_ BitVec 32))
(declare-fun src_reg_34_224 () (_ BitVec 64))
(declare-fun src_reg_34_152 () (_ BitVec 64))
(declare-fun src_reg_34_223 () (_ BitVec 64))
(declare-fun src_reg_34_151 () (_ BitVec 64))
(declare-fun src_reg_34_222 () (_ BitVec 64))
(declare-fun src_reg_34_150 () (_ BitVec 64))
(declare-fun src_reg_34_221 () (_ BitVec 64))
(declare-fun src_reg_34_149 () (_ BitVec 64))
(declare-fun src_reg_34_220 () (_ BitVec 64))
(declare-fun src_reg_34_148 () (_ BitVec 64))
(declare-fun src_reg_34_219 () (_ BitVec 64))
(declare-fun src_reg_34_147 () (_ BitVec 64))
(declare-fun src_reg_34_218 () (_ BitVec 32))
(declare-fun src_reg_34_146 () (_ BitVec 32))
(declare-fun src_reg_34_217 () (_ BitVec 32))
(declare-fun src_reg_34_145 () (_ BitVec 32))
(declare-fun dst_reg_34_216 () (_ BitVec 8))
(declare-fun dst_reg_34_144 () (_ BitVec 8))
(declare-fun dst_reg_34_215 () (_ BitVec 32))
(declare-fun dst_reg_34_143 () (_ BitVec 32))
(declare-fun dst_reg_34_214 () (_ BitVec 32))
(declare-fun dst_reg_34_142 () (_ BitVec 32))
(declare-fun dst_reg_34_213 () (_ BitVec 32))
(declare-fun dst_reg_34_141 () (_ BitVec 32))
(declare-fun dst_reg_34_212 () (_ BitVec 32))
(declare-fun dst_reg_34_140 () (_ BitVec 32))
(declare-fun dst_reg_34_211 () (_ BitVec 32))
(declare-fun dst_reg_34_139 () (_ BitVec 32))
(declare-fun dst_reg_34_210 () (_ BitVec 32))
(declare-fun dst_reg_34_138 () (_ BitVec 32))
(declare-fun dst_reg_34_209 () (_ BitVec 32))
(declare-fun dst_reg_34_137 () (_ BitVec 32))
(declare-fun dst_reg_34_208 () (_ BitVec 32))
(declare-fun dst_reg_34_136 () (_ BitVec 32))
(declare-fun dst_reg_34_207 () (_ BitVec 32))
(declare-fun dst_reg_34_135 () (_ BitVec 32))
(declare-fun dst_reg_34_206 () (_ BitVec 64))
(declare-fun dst_reg_34_134 () (_ BitVec 64))
(declare-fun dst_reg_34_205 () (_ BitVec 64))
(declare-fun dst_reg_34_133 () (_ BitVec 64))
(declare-fun dst_reg_34_204 () (_ BitVec 64))
(declare-fun dst_reg_34_132 () (_ BitVec 64))
(declare-fun dst_reg_34_203 () (_ BitVec 64))
(declare-fun dst_reg_34_131 () (_ BitVec 64))
(declare-fun dst_reg_34_202 () (_ BitVec 64))
(declare-fun dst_reg_34_130 () (_ BitVec 64))
(declare-fun dst_reg_34_201 () (_ BitVec 64))
(declare-fun dst_reg_34_129 () (_ BitVec 64))
(declare-fun dst_reg_34_200 () (_ BitVec 32))
(declare-fun dst_reg_34_128 () (_ BitVec 32))
(declare-fun dst_reg_34_199 () (_ BitVec 32))
(declare-fun dst_reg_34_127 () (_ BitVec 32))
(assert (let ((a!1 (and (= cmp2.not.i_34_109 #b1)
                (and (= cmp.not.i_34_106 #b1) (= narrow_34_103 #b0))))
      (a!2 (and (= cmp2.not.i_34_109 #b0)
                (and (= cmp.not.i_34_106 #b1) (= narrow_34_103 #b0))))
      (a!3 (and (= i.i2_34_85 other_branch_src_reg_34_181)
                (= other_branch_src_reg_34_55 other_branch_src_reg_34_182)
                (= i21.i5_34_86 other_branch_src_reg_34_183)
                (= i22.i8_34_87 other_branch_src_reg_34_184)
                (= i23.i11_34_88 other_branch_src_reg_34_185)
                (= i24.i14_34_89 other_branch_src_reg_34_186)
                (= i25.i17_34_90 other_branch_src_reg_34_187)
                (= i26.i20_34_91 other_branch_src_reg_34_188)
                (= i27.i23_34_92 other_branch_src_reg_34_189)
                (= i28.i26_34_93 other_branch_src_reg_34_190)
                (= i29.i29_34_94 other_branch_src_reg_34_191)
                (= i30.i32_34_95 other_branch_src_reg_34_192)
                (= other_branch_src_reg_34_66 other_branch_src_reg_34_193)
                (= other_branch_src_reg_34_67 other_branch_src_reg_34_194)
                (= other_branch_src_reg_34_68 other_branch_src_reg_34_195)
                (= other_branch_src_reg_34_69 other_branch_src_reg_34_196)
                (= other_branch_src_reg_34_70 other_branch_src_reg_34_197)
                (= other_branch_src_reg_34_71 other_branch_src_reg_34_198)
                (= i.i_34_74 other_branch_dst_reg_34_163)
                (= other_branch_dst_reg_34_37 other_branch_dst_reg_34_164)
                (= i21.i_34_75 other_branch_dst_reg_34_165)
                (= i22.i_34_76 other_branch_dst_reg_34_166)
                (= i23.i_34_77 other_branch_dst_reg_34_167)
                (= i24.i_34_78 other_branch_dst_reg_34_168)
                (= i25.i_34_79 other_branch_dst_reg_34_169)
                (= i26.i_34_80 other_branch_dst_reg_34_170)
                (= i27.i_34_81 other_branch_dst_reg_34_171)
                (= i28.i_34_82 other_branch_dst_reg_34_172)
                (= i29.i_34_83 other_branch_dst_reg_34_173)
                (= i30.i_34_84 other_branch_dst_reg_34_174)
                (= other_branch_dst_reg_34_48 other_branch_dst_reg_34_175)
                (= other_branch_dst_reg_34_49 other_branch_dst_reg_34_176)
                (= other_branch_dst_reg_34_50 other_branch_dst_reg_34_177)
                (= other_branch_dst_reg_34_51 other_branch_dst_reg_34_178)
                (= other_branch_dst_reg_34_52 other_branch_dst_reg_34_179)
                (= other_branch_dst_reg_34_53 other_branch_dst_reg_34_180)
                (= #x00000001 src_reg_34_145)
                (= src_reg_34_19 src_reg_34_146)
                (= src_reg_34_20 src_reg_34_147)
                (= src_reg_34_21 src_reg_34_148)
                (= src_reg_34_22 src_reg_34_149)
                (= src_reg_34_23 src_reg_34_150)
                (= src_reg_34_24 src_reg_34_151)
                (= src_reg_34_25 src_reg_34_152)
                (= src_reg_34_26 src_reg_34_153)
                (= src_reg_34_27 src_reg_34_154)
                (= src_reg_34_28 src_reg_34_155)
                (= src_reg_34_29 src_reg_34_156)
                (= src_reg_34_30 src_reg_34_157)
                (= src_reg_34_31 src_reg_34_158)
                (= src_reg_34_32 src_reg_34_159)
                (= src_reg_34_33 src_reg_34_160)
                (= src_reg_34_34 src_reg_34_161)
                (= src_reg_34_35 src_reg_34_162)
                (= #x00000001 dst_reg_34_127)
                (= dst_reg_34_1 dst_reg_34_128)
                (= dst_reg_34_2 dst_reg_34_129)
                (= dst_reg_34_3 dst_reg_34_130)
                (= dst_reg_34_4 dst_reg_34_131)
                (= dst_reg_34_5 dst_reg_34_132)
                (= dst_reg_34_6 dst_reg_34_133)
                (= dst_reg_34_7 dst_reg_34_134)
                (= dst_reg_34_8 dst_reg_34_135)
                (= dst_reg_34_9 dst_reg_34_136)
                (= dst_reg_34_10 dst_reg_34_137)
                (= dst_reg_34_11 dst_reg_34_138)
                (= dst_reg_34_12 dst_reg_34_139)
                (= dst_reg_34_13 dst_reg_34_140)
                (= dst_reg_34_14 dst_reg_34_141)
                (= dst_reg_34_15 dst_reg_34_142)
                (= dst_reg_34_16 dst_reg_34_143)
                (= dst_reg_34_17 dst_reg_34_144)))
      (a!7 (=> (and (= cmp.not.i_34_106 #b1) (= narrow_34_103 #b0))
               (and (= #x00000001 i1.i_34_107)
                    (ite (= i1.i_34_107 #x00000001)
                         (= cmp2.not.i_34_109 #b1)
                         (= cmp2.not.i_34_109 #b0)))))
      (a!8 (=> (= narrow_34_103 #b0)
               (and (= #x00000001 i.i35_34_104)
                    (ite (= i.i35_34_104 #x00000001)
                         (= cmp.not.i_34_106 #b1)
                         (= cmp.not.i_34_106 #b0))))))
(let ((a!4 (and (=> (= narrow_34_103 #b1) a!3)
                (=> (and (= cmp.not.i_34_106 #b0) (= narrow_34_103 #b0)) a!3)
                (=> a!2 a!3)
                (=> a!1
                    (and (= i.i2_34_85 other_branch_src_reg_34_181)
                         (= other_branch_src_reg_34_55
                            other_branch_src_reg_34_182)
                         (= i21.i5_34_86 other_branch_src_reg_34_183)
                         (= i22.i8_34_87 other_branch_src_reg_34_184)
                         (= cond441.i584.i_34_126 other_branch_src_reg_34_185)
                         (= i24.i14_34_89 other_branch_src_reg_34_186)
                         (= i25.i17_34_90 other_branch_src_reg_34_187)
                         (= i26.i20_34_91 other_branch_src_reg_34_188)
                         (= i27.i23_34_92 other_branch_src_reg_34_189)
                         (= i28.i26_34_93 other_branch_src_reg_34_190)
                         (= i29.i29_34_94 other_branch_src_reg_34_191)
                         (= i30.i32_34_95 other_branch_src_reg_34_192)
                         (= other_branch_src_reg_34_66
                            other_branch_src_reg_34_193)
                         (= other_branch_src_reg_34_67
                            other_branch_src_reg_34_194)
                         (= other_branch_src_reg_34_68
                            other_branch_src_reg_34_195)
                         (= other_branch_src_reg_34_69
                            other_branch_src_reg_34_196)
                         (= other_branch_src_reg_34_70
                            other_branch_src_reg_34_197)
                         (= other_branch_src_reg_34_71
                            other_branch_src_reg_34_198)
                         (= i.i_34_74 other_branch_dst_reg_34_163)
                         (= other_branch_dst_reg_34_37
                            other_branch_dst_reg_34_164)
                         (= i21.i_34_75 other_branch_dst_reg_34_165)
                         (= i22.i_34_76 other_branch_dst_reg_34_166)
                         (= i23.i_34_77 other_branch_dst_reg_34_167)
                         (= cond430.i577.i_34_120 other_branch_dst_reg_34_168)
                         (= i25.i_34_79 other_branch_dst_reg_34_169)
                         (= i26.i_34_80 other_branch_dst_reg_34_170)
                         (= i27.i_34_81 other_branch_dst_reg_34_171)
                         (= i28.i_34_82 other_branch_dst_reg_34_172)
                         (= i29.i_34_83 other_branch_dst_reg_34_173)
                         (= i30.i_34_84 other_branch_dst_reg_34_174)
                         (= other_branch_dst_reg_34_48
                            other_branch_dst_reg_34_175)
                         (= other_branch_dst_reg_34_49
                            other_branch_dst_reg_34_176)
                         (= other_branch_dst_reg_34_50
                            other_branch_dst_reg_34_177)
                         (= other_branch_dst_reg_34_51
                            other_branch_dst_reg_34_178)
                         (= other_branch_dst_reg_34_52
                            other_branch_dst_reg_34_179)
                         (= other_branch_dst_reg_34_53
                            other_branch_dst_reg_34_180)
                         (= #x00000001 src_reg_34_145)
                         (= src_reg_34_19 src_reg_34_146)
                         (= src_reg_34_20 src_reg_34_147)
                         (= src_reg_34_21 src_reg_34_148)
                         (= src_reg_34_22 src_reg_34_149)
                         (= cond382.i.i_34_111 src_reg_34_150)
                         (= src_reg_34_24 src_reg_34_151)
                         (= src_reg_34_25 src_reg_34_152)
                         (= src_reg_34_26 src_reg_34_153)
                         (= src_reg_34_27 src_reg_34_154)
                         (= src_reg_34_28 src_reg_34_155)
                         (= src_reg_34_29 src_reg_34_156)
                         (= src_reg_34_30 src_reg_34_157)
                         (= src_reg_34_31 src_reg_34_158)
                         (= src_reg_34_32 src_reg_34_159)
                         (= src_reg_34_33 src_reg_34_160)
                         (= src_reg_34_34 src_reg_34_161)
                         (= src_reg_34_35 src_reg_34_162)
                         (= #x00000001 dst_reg_34_127)
                         (= dst_reg_34_1 dst_reg_34_128)
                         (= dst_reg_34_2 dst_reg_34_129)
                         (= dst_reg_34_3 dst_reg_34_130)
                         (= cond392.i.i_34_114 dst_reg_34_131)
                         (= dst_reg_34_5 dst_reg_34_132)
                         (= dst_reg_34_6 dst_reg_34_133)
                         (= dst_reg_34_7 dst_reg_34_134)
                         (= dst_reg_34_8 dst_reg_34_135)
                         (= dst_reg_34_9 dst_reg_34_136)
                         (= dst_reg_34_10 dst_reg_34_137)
                         (= dst_reg_34_11 dst_reg_34_138)
                         (= dst_reg_34_12 dst_reg_34_139)
                         (= dst_reg_34_13 dst_reg_34_140)
                         (= dst_reg_34_14 dst_reg_34_141)
                         (= dst_reg_34_15 dst_reg_34_142)
                         (= dst_reg_34_16 dst_reg_34_143)
                         (= dst_reg_34_17 dst_reg_34_144)))
                (= dst_reg_34_127 dst_reg_34_199)
                (= dst_reg_34_128 dst_reg_34_200)
                (= dst_reg_34_129 dst_reg_34_201)
                (= dst_reg_34_130 dst_reg_34_202)
                (= dst_reg_34_131 dst_reg_34_203)
                (= dst_reg_34_132 dst_reg_34_204)
                (= dst_reg_34_133 dst_reg_34_205)
                (= dst_reg_34_134 dst_reg_34_206)
                (= dst_reg_34_135 dst_reg_34_207)
                (= dst_reg_34_136 dst_reg_34_208)
                (= dst_reg_34_137 dst_reg_34_209)
                (= dst_reg_34_138 dst_reg_34_210)
                (= dst_reg_34_139 dst_reg_34_211)
                (= dst_reg_34_140 dst_reg_34_212)
                (= dst_reg_34_141 dst_reg_34_213)
                (= dst_reg_34_142 dst_reg_34_214)
                (= dst_reg_34_143 dst_reg_34_215)
                (= dst_reg_34_144 dst_reg_34_216)
                (= src_reg_34_145 src_reg_34_217)
                (= src_reg_34_146 src_reg_34_218)
                (= src_reg_34_147 src_reg_34_219)
                (= src_reg_34_148 src_reg_34_220)
                (= src_reg_34_149 src_reg_34_221)
                (= src_reg_34_150 src_reg_34_222)
                (= src_reg_34_151 src_reg_34_223)
                (= src_reg_34_152 src_reg_34_224)
                (= src_reg_34_153 src_reg_34_225)
                (= src_reg_34_154 src_reg_34_226)
                (= src_reg_34_155 src_reg_34_227)
                (= src_reg_34_156 src_reg_34_228)
                (= src_reg_34_157 src_reg_34_229)
                (= src_reg_34_158 src_reg_34_230)
                (= src_reg_34_159 src_reg_34_231)
                (= src_reg_34_160 src_reg_34_232)
                (= src_reg_34_161 src_reg_34_233)
                (= src_reg_34_162 src_reg_34_234)
                (= other_branch_dst_reg_34_163 other_branch_dst_reg_34_235)
                (= other_branch_dst_reg_34_164 other_branch_dst_reg_34_236)
                (= other_branch_dst_reg_34_165 other_branch_dst_reg_34_237)
                (= other_branch_dst_reg_34_166 other_branch_dst_reg_34_238)
                (= other_branch_dst_reg_34_167 other_branch_dst_reg_34_239)
                (= other_branch_dst_reg_34_168 other_branch_dst_reg_34_240)
                (= other_branch_dst_reg_34_169 other_branch_dst_reg_34_241)
                (= other_branch_dst_reg_34_170 other_branch_dst_reg_34_242)
                (= other_branch_dst_reg_34_171 other_branch_dst_reg_34_243)
                (= other_branch_dst_reg_34_172 other_branch_dst_reg_34_244)
                (= other_branch_dst_reg_34_173 other_branch_dst_reg_34_245)
                (= other_branch_dst_reg_34_174 other_branch_dst_reg_34_246)
                (= other_branch_dst_reg_34_175 other_branch_dst_reg_34_247)
                (= other_branch_dst_reg_34_176 other_branch_dst_reg_34_248)
                (= other_branch_dst_reg_34_177 other_branch_dst_reg_34_249)
                (= other_branch_dst_reg_34_178 other_branch_dst_reg_34_250)
                (= other_branch_dst_reg_34_179 other_branch_dst_reg_34_251)
                (= other_branch_dst_reg_34_180 other_branch_dst_reg_34_252)
                (= other_branch_src_reg_34_181 other_branch_src_reg_34_253)
                (= other_branch_src_reg_34_182 other_branch_src_reg_34_254)
                (= other_branch_src_reg_34_183 other_branch_src_reg_34_255)
                (= other_branch_src_reg_34_184 other_branch_src_reg_34_256)
                (= other_branch_src_reg_34_185 other_branch_src_reg_34_257)
                (= other_branch_src_reg_34_186 other_branch_src_reg_34_258)
                (= other_branch_src_reg_34_187 other_branch_src_reg_34_259)
                (= other_branch_src_reg_34_188 other_branch_src_reg_34_260)
                (= other_branch_src_reg_34_189 other_branch_src_reg_34_261)
                (= other_branch_src_reg_34_190 other_branch_src_reg_34_262)
                (= other_branch_src_reg_34_191 other_branch_src_reg_34_263)
                (= other_branch_src_reg_34_192 other_branch_src_reg_34_264)
                (= other_branch_src_reg_34_193 other_branch_src_reg_34_265)
                (= other_branch_src_reg_34_194 other_branch_src_reg_34_266)
                (= other_branch_src_reg_34_195 other_branch_src_reg_34_267)
                (= other_branch_src_reg_34_196 other_branch_src_reg_34_268)
                (= other_branch_src_reg_34_197 other_branch_src_reg_34_269)
                (= other_branch_src_reg_34_198 other_branch_src_reg_34_270)))
      (a!6 (=> a!1
               (and (ite (bvslt i147.i.i_34_99 i139.i.i_34_97)
                         (= cmp377.i.i_34_110 #b1)
                         (= cmp377.i.i_34_110 #b0))
                    (ite (= cmp377.i.i_34_110 #b1)
                         (= cond382.i.i_34_111 i147.i.i_34_99)
                         (= cond382.i.i_34_111 i139.i.i_34_97))
                    (= dst_reg_34_4 i369.i.i_34_112)
                    (ite (bvsgt i145.i.i_34_98 i369.i.i_34_112)
                         (= cmp387.i.i_34_113 #b1)
                         (= cmp387.i.i_34_113 #b0))
                    (ite (= cmp387.i.i_34_113 #b1)
                         (= cond392.i.i_34_114 i145.i.i_34_98)
                         (= cond392.i.i_34_114 i369.i.i_34_112))
                    (= i24.i_34_78 i374.i572.i_34_115)
                    (= i24.i14_34_89 i375.i574.i_34_116)
                    (= sub423.i575.i_34_118
                       (bvadd i375.i574.i_34_116 #xffffffffffffffff))
                    (ite (bvslt i374.i572.i_34_115 sub423.i575.i_34_118)
                         (= cmp425.i576.i_34_119 #b1)
                         (= cmp425.i576.i_34_119 #b0))
                    (ite (= cmp425.i576.i_34_119 #b1)
                         (= cond430.i577.i_34_120 i374.i572.i_34_115)
                         (= cond430.i577.i_34_120 sub423.i575.i_34_118))
                    (= i23.i_34_77 i376.i579.i_34_121)
                    (= add433.i580.i_34_123
                       (bvadd i376.i579.i_34_121 #x0000000000000001))
                    (= i23.i11_34_88 i377.i582.i_34_124)
                    (ite (bvsgt add433.i580.i_34_123 i377.i582.i_34_124)
                         (= cmp436.i583.i_34_125 #b1)
                         (= cmp436.i583.i_34_125 #b0))
                    (ite (= cmp436.i583.i_34_125 #b1)
                         (= cond441.i584.i_34_126 add433.i580.i_34_123)
                         (= cond441.i584.i_34_126 i377.i582.i_34_124))))))
(let ((a!5 (=> (or a!1
                   a!2
                   (and (= cmp.not.i_34_106 #b0) (= narrow_34_103 #b0))
                   (= narrow_34_103 #b1))
               a!4)))
  (and a!5
       a!6
       a!7
       a!8
       (= dst_reg_34_0 dst_reg_34_0)
       (= dst_reg_34_1 dst_reg_34_1)
       (= dst_reg_34_2 dst_reg_34_2)
       (= dst_reg_34_3 dst_reg_34_3)
       (= dst_reg_34_4 dst_reg_34_4)
       (= dst_reg_34_5 dst_reg_34_5)
       (= dst_reg_34_6 dst_reg_34_6)
       (= dst_reg_34_7 dst_reg_34_7)
       (= dst_reg_34_8 dst_reg_34_8)
       (= dst_reg_34_9 dst_reg_34_9)
       (= dst_reg_34_10 dst_reg_34_10)
       (= dst_reg_34_11 dst_reg_34_11)
       (= dst_reg_34_12 dst_reg_34_12)
       (= dst_reg_34_13 dst_reg_34_13)
       (= dst_reg_34_14 dst_reg_34_14)
       (= dst_reg_34_15 dst_reg_34_15)
       (= dst_reg_34_16 dst_reg_34_16)
       (= dst_reg_34_17 dst_reg_34_17)
       (= src_reg_34_18 src_reg_34_18)
       (= src_reg_34_19 src_reg_34_19)
       (= src_reg_34_20 src_reg_34_20)
       (= src_reg_34_21 src_reg_34_21)
       (= src_reg_34_22 src_reg_34_22)
       (= src_reg_34_23 src_reg_34_23)
       (= src_reg_34_24 src_reg_34_24)
       (= src_reg_34_25 src_reg_34_25)
       (= src_reg_34_26 src_reg_34_26)
       (= src_reg_34_27 src_reg_34_27)
       (= src_reg_34_28 src_reg_34_28)
       (= src_reg_34_29 src_reg_34_29)
       (= src_reg_34_30 src_reg_34_30)
       (= src_reg_34_31 src_reg_34_31)
       (= src_reg_34_32 src_reg_34_32)
       (= src_reg_34_33 src_reg_34_33)
       (= src_reg_34_34 src_reg_34_34)
       (= src_reg_34_35 src_reg_34_35)
       (= other_branch_dst_reg_34_36 other_branch_dst_reg_34_36)
       (= other_branch_dst_reg_34_37 other_branch_dst_reg_34_37)
       (= other_branch_dst_reg_34_38 other_branch_dst_reg_34_38)
       (= other_branch_dst_reg_34_39 other_branch_dst_reg_34_39)
       (= other_branch_dst_reg_34_40 other_branch_dst_reg_34_40)
       (= other_branch_dst_reg_34_41 other_branch_dst_reg_34_41)
       (= other_branch_dst_reg_34_42 other_branch_dst_reg_34_42)
       (= other_branch_dst_reg_34_43 other_branch_dst_reg_34_43)
       (= other_branch_dst_reg_34_44 other_branch_dst_reg_34_44)
       (= other_branch_dst_reg_34_45 other_branch_dst_reg_34_45)
       (= other_branch_dst_reg_34_46 other_branch_dst_reg_34_46)
       (= other_branch_dst_reg_34_47 other_branch_dst_reg_34_47)
       (= other_branch_dst_reg_34_48 other_branch_dst_reg_34_48)
       (= other_branch_dst_reg_34_49 other_branch_dst_reg_34_49)
       (= other_branch_dst_reg_34_50 other_branch_dst_reg_34_50)
       (= other_branch_dst_reg_34_51 other_branch_dst_reg_34_51)
       (= other_branch_dst_reg_34_52 other_branch_dst_reg_34_52)
       (= other_branch_dst_reg_34_53 other_branch_dst_reg_34_53)
       (= other_branch_src_reg_34_54 other_branch_src_reg_34_54)
       (= other_branch_src_reg_34_55 other_branch_src_reg_34_55)
       (= other_branch_src_reg_34_56 other_branch_src_reg_34_56)
       (= other_branch_src_reg_34_57 other_branch_src_reg_34_57)
       (= other_branch_src_reg_34_58 other_branch_src_reg_34_58)
       (= other_branch_src_reg_34_59 other_branch_src_reg_34_59)
       (= other_branch_src_reg_34_60 other_branch_src_reg_34_60)
       (= other_branch_src_reg_34_61 other_branch_src_reg_34_61)
       (= other_branch_src_reg_34_62 other_branch_src_reg_34_62)
       (= other_branch_src_reg_34_63 other_branch_src_reg_34_63)
       (= other_branch_src_reg_34_64 other_branch_src_reg_34_64)
       (= other_branch_src_reg_34_65 other_branch_src_reg_34_65)
       (= other_branch_src_reg_34_66 other_branch_src_reg_34_66)
       (= other_branch_src_reg_34_67 other_branch_src_reg_34_67)
       (= other_branch_src_reg_34_68 other_branch_src_reg_34_68)
       (= other_branch_src_reg_34_69 other_branch_src_reg_34_69)
       (= other_branch_src_reg_34_70 other_branch_src_reg_34_70)
       (= other_branch_src_reg_34_71 other_branch_src_reg_34_71)
       (= #x00000001 i.i_34_74)
       (= dst_reg_34_2 i21.i_34_75)
       (= dst_reg_34_3 i22.i_34_76)
       (= dst_reg_34_4 i23.i_34_77)
       (= dst_reg_34_5 i24.i_34_78)
       (= dst_reg_34_6 i25.i_34_79)
       (= dst_reg_34_7 i26.i_34_80)
       (= dst_reg_34_8 i27.i_34_81)
       (= dst_reg_34_9 i28.i_34_82)
       (= dst_reg_34_10 i29.i_34_83)
       (= dst_reg_34_11 i30.i_34_84)
       (= #x00000001 i.i2_34_85)
       (= src_reg_34_20 i21.i5_34_86)
       (= src_reg_34_21 i22.i8_34_87)
       (= src_reg_34_22 i23.i11_34_88)
       (= src_reg_34_23 i24.i14_34_89)
       (= src_reg_34_24 i25.i17_34_90)
       (= src_reg_34_25 i26.i20_34_91)
       (= src_reg_34_26 i27.i23_34_92)
       (= src_reg_34_27 i28.i26_34_93)
       (= src_reg_34_28 i29.i29_34_94)
       (= src_reg_34_29 i30.i32_34_95)
       (= dst_reg_34_4 i137.i.i_34_96)
       (= dst_reg_34_5 i139.i.i_34_97)
       (= src_reg_34_22 i145.i.i_34_98)
       (= src_reg_34_23 i147.i.i_34_99)
       (ite (bvslt i139.i.i_34_97 i145.i.i_34_98)
            (= cmp221.i.i_34_100 #b1)
            (= cmp221.i.i_34_100 #b0))
       (ite (bvsge i137.i.i_34_96 i147.i.i_34_99)
            (= cmp225.not.i.i_34_101 #b1)
            (= cmp225.not.i.i_34_101 #b0))
       (ite (= cmp221.i.i_34_100 #b1)
            (= narrow_34_103 #b1)
            (= narrow_34_103 cmp225.not.i.i_34_101)))))))

;{"dst_reg":["dst_reg_34_0","dst_reg_34_1",[""],["dst_reg_34_2","dst_reg_34_3"],"dst_reg_34_4","dst_reg_34_5","dst_reg_34_6","dst_reg_34_7","dst_reg_34_8","dst_reg_34_9","dst_reg_34_10","dst_reg_34_11","dst_reg_34_12","dst_reg_34_13","","","dst_reg_34_14","dst_reg_34_15","dst_reg_34_16"],"other_branch_dst_reg":["other_branch_dst_reg_34_36","other_branch_dst_reg_34_37",[""],["other_branch_dst_reg_34_38","other_branch_dst_reg_34_39"],"other_branch_dst_reg_34_40","other_branch_dst_reg_34_41","other_branch_dst_reg_34_42","other_branch_dst_reg_34_43","other_branch_dst_reg_34_44","other_branch_dst_reg_34_45","other_branch_dst_reg_34_46","other_branch_dst_reg_34_47","other_branch_dst_reg_34_48","other_branch_dst_reg_34_49","","","other_branch_dst_reg_34_50","other_branch_dst_reg_34_51","other_branch_dst_reg_34_52"],"other_branch_src_reg":["other_branch_src_reg_34_54","other_branch_src_reg_34_55",[""],["other_branch_src_reg_34_56","other_branch_src_reg_34_57"],"other_branch_src_reg_34_58","other_branch_src_reg_34_59","other_branch_src_reg_34_60","other_branch_src_reg_34_61","other_branch_src_reg_34_62","other_branch_src_reg_34_63","other_branch_src_reg_34_64","other_branch_src_reg_34_65","other_branch_src_reg_34_66","other_branch_src_reg_34_67","","","other_branch_src_reg_34_68","other_branch_src_reg_34_69","other_branch_src_reg_34_70"],"src_reg":["src_reg_34_18","src_reg_34_19",[""],["src_reg_34_20","src_reg_34_21"],"src_reg_34_22","src_reg_34_23","src_reg_34_24","src_reg_34_25","src_reg_34_26","src_reg_34_27","src_reg_34_28","src_reg_34_29","src_reg_34_30","src_reg_34_31","","","src_reg_34_32","src_reg_34_33","src_reg_34_34"]}
;{"dst_reg":["dst_reg_34_199","dst_reg_34_200",[""],["dst_reg_34_201","dst_reg_34_202"],"dst_reg_34_203","dst_reg_34_204","dst_reg_34_205","dst_reg_34_206","dst_reg_34_207","dst_reg_34_208","dst_reg_34_209","dst_reg_34_210","dst_reg_34_211","dst_reg_34_212","","","dst_reg_34_213","dst_reg_34_214","dst_reg_34_215"],"other_branch_dst_reg":["other_branch_dst_reg_34_235","other_branch_dst_reg_34_236",[""],["other_branch_dst_reg_34_237","other_branch_dst_reg_34_238"],"other_branch_dst_reg_34_239","other_branch_dst_reg_34_240","other_branch_dst_reg_34_241","other_branch_dst_reg_34_242","other_branch_dst_reg_34_243","other_branch_dst_reg_34_244","other_branch_dst_reg_34_245","other_branch_dst_reg_34_246","other_branch_dst_reg_34_247","other_branch_dst_reg_34_248","","","other_branch_dst_reg_34_249","other_branch_dst_reg_34_250","other_branch_dst_reg_34_251"],"other_branch_src_reg":["other_branch_src_reg_34_253","other_branch_src_reg_34_254",[""],["other_branch_src_reg_34_255","other_branch_src_reg_34_256"],"other_branch_src_reg_34_257","other_branch_src_reg_34_258","other_branch_src_reg_34_259","other_branch_src_reg_34_260","other_branch_src_reg_34_261","other_branch_src_reg_34_262","other_branch_src_reg_34_263","other_branch_src_reg_34_264","other_branch_src_reg_34_265","other_branch_src_reg_34_266","","","other_branch_src_reg_34_267","other_branch_src_reg_34_268","other_branch_src_reg_34_269"],"src_reg":["src_reg_34_217","src_reg_34_218",[""],["src_reg_34_219","src_reg_34_220"],"src_reg_34_221","src_reg_34_222","src_reg_34_223","src_reg_34_224","src_reg_34_225","src_reg_34_226","src_reg_34_227","src_reg_34_228","src_reg_34_229","src_reg_34_230","","","src_reg_34_231","src_reg_34_232","src_reg_34_233"]}
